NAME: 150_hard
TYPE: HCP TOUR
COMMENT: 150-node graph, total time 9.51 seconds
DIMENSION: 150
EDGE_DATA_FORMAT: EDGE_LIST
EDGE_DATA_SECTION
96
117
49
14
123
133
81
111
72
66
97
11
95
134
43
89
54
124
39
126
130
65
9
78
74
120
64
4
129
82
24
47
102
122
41
10
144
79
98
88
116
150
34
135
90
26
45
1
2
99
142
121
91
112
52
38
23
36
62
75
69
92
139
19
105
83
13
125
51
48
60
28
68
87
61
76
145
114
136
106
118
137
103
143
42
33
46
132
71
25
138
29
148
101
141
50
131
100
94
115
37
104
147
3
35
53
67
7
16
57
110
73
108
77
6
109
119
149
140
8
15
17
58
20
59
128
127
31
12
63
30
22
56
85
32
146
27
86
93
107
55
80
5
113
18
21
40
84
70
44
-1
EOF
